============================[ Problem Statistics ]=============================
|                                                                             |
|  Number of variables:           482                                         |
|  Number of clauses:            1327                                         |
|  Parse time:                   0.00 s                                       |
|  Eliminated clauses:           0.01 Mb                                      |
|  Simplification time:          0.00 s                                       |
|                                                                             |
============================[ Search Statistics ]==============================
| Conflicts |          ORIGINAL         |          LEARNT          | Progress |
|           |    Vars  Clauses Literals |    Limit  Clauses Lit/Cl |          |
===============================================================================
===============================================================================
restarts              : 1
conflicts             : 92             (21983 /sec)
decisions             : 321            (0.00 % random) (76703 /sec)
propagations          : 2788           (666189 /sec)
conflict literals     : 407            (14.50 % deleted)
Memory used           : 0.39 MB
CPU time              : 0.004185 s

UNSATISFIABLE
============================[ Problem Statistics ]=============================
|                                                                             |
|  Number of variables:          1202                                         |
|  Number of clauses:            3082                                         |
|  Parse time:                   0.00 s                                       |
|  Eliminated clauses:           0.04 Mb                                      |
|  Simplification time:          0.01 s                                       |
|                                                                             |
============================[ Search Statistics ]==============================
| Conflicts |          ORIGINAL         |          LEARNT          | Progress |
|           |    Vars  Clauses Literals |    Limit  Clauses Lit/Cl |          |
===============================================================================
===============================================================================
restarts              : 1
conflicts             : 0              (0 /sec)
decisions             : 1              (0.00 % random) (123 /sec)
propagations          : 170            (20874 /sec)
conflict literals     : 0              ( nan % deleted)
Memory used           : 0.70 MB
CPU time              : 0.008144 s

SATISFIABLE
============================[ Problem Statistics ]=============================
|                                                                             |
|  Number of variables:           562                                         |
|  Number of clauses:            1522                                         |
|  Parse time:                   0.00 s                                       |
|  Eliminated clauses:           0.02 Mb                                      |
|  Simplification time:          0.00 s                                       |
|                                                                             |
============================[ Search Statistics ]==============================
| Conflicts |          ORIGINAL         |          LEARNT          | Progress |
|           |    Vars  Clauses Literals |    Limit  Clauses Lit/Cl |          |
===============================================================================
===============================================================================
restarts              : 1
conflicts             : 0              (0 /sec)
decisions             : 1              (0.00 % random) (197 /sec)
propagations          : 58             (11453 /sec)
conflict literals     : 0              ( nan % deleted)
Memory used           : 0.46 MB
CPU time              : 0.005064 s

SATISFIABLE
============================[ Problem Statistics ]=============================
|                                                                             |
|  Number of variables:           562                                         |
|  Number of clauses:            1526                                         |
|  Parse time:                   0.00 s                                       |
|  Eliminated clauses:           0.01 Mb                                      |
|  Simplification time:          0.00 s                                       |
|                                                                             |
============================[ Search Statistics ]==============================
| Conflicts |          ORIGINAL         |          LEARNT          | Progress |
|           |    Vars  Clauses Literals |    Limit  Clauses Lit/Cl |          |
===============================================================================
===============================================================================
restarts              : 1
conflicts             : 98             (22654 /sec)
decisions             : 400            (0.00 % random) (92464 /sec)
propagations          : 3047           (704346 /sec)
conflict literals     : 531            (17.29 % deleted)
Memory used           : 0.36 MB
CPU time              : 0.004326 s

SATISFIABLE
============================[ Problem Statistics ]=============================
|                                                                             |
|  Number of variables:           482                                         |
|  Number of clauses:            1329                                         |
|  Parse time:                   0.00 s                                       |
|  Eliminated clauses:           0.01 Mb                                      |
|  Simplification time:          0.00 s                                       |
|                                                                             |
============================[ Search Statistics ]==============================
| Conflicts |          ORIGINAL         |          LEARNT          | Progress |
|           |    Vars  Clauses Literals |    Limit  Clauses Lit/Cl |          |
===============================================================================
|       100 |     143      580     1845 |      212      100      8 | 25.106 % |
===============================================================================
restarts              : 2
conflicts             : 163            (33994 /sec)
decisions             : 500            (0.00 % random) (104275 /sec)
propagations          : 4292           (895099 /sec)
conflict literals     : 1119           (21.80 % deleted)
Memory used           : 0.54 MB
CPU time              : 0.004795 s

SATISFIABLE
============================[ Problem Statistics ]=============================
|                                                                             |
|  Number of variables:           482                                         |
|  Number of clauses:            1329                                         |
|  Parse time:                   0.00 s                                       |
|  Eliminated clauses:           0.01 Mb                                      |
|  Simplification time:          0.00 s                                       |
|                                                                             |
============================[ Search Statistics ]==============================
| Conflicts |          ORIGINAL         |          LEARNT          | Progress |
|           |    Vars  Clauses Literals |    Limit  Clauses Lit/Cl |          |
===============================================================================
|       100 |     143      580     1845 |      212      100      8 | 25.106 % |
===============================================================================
restarts              : 2
conflicts             : 163            (34659 /sec)
decisions             : 500            (0.00 % random) (106315 /sec)
propagations          : 4292           (912609 /sec)
conflict literals     : 1119           (21.80 % deleted)
Memory used           : 0.51 MB
CPU time              : 0.004703 s

SATISFIABLE
============================[ Problem Statistics ]=============================
|                                                                             |
|  Number of variables:           107                                         |
|  Number of clauses:             250                                         |
|  Parse time:                   0.00 s                                       |
|  Simplification time:          0.00 s                                       |
|                                                                             |
===============================================================================
Solved by simplification
restarts              : 0
conflicts             : 0              (0 /sec)
decisions             : 0              ( nan % random) (0 /sec)
propagations          : 101            (99020 /sec)
conflict literals     : 0              ( nan % deleted)
Memory used           : 4.45 MB
CPU time              : 0.00102 s

UNSATISFIABLE
